NAME transport
OBJSENSE
 MIN
ROWS
 N  x7
 L  c_u_x8_
 L  c_u_x9_
 G  c_l_x10_
 G  c_l_x11_
 G  c_l_x12_
COLUMNS
     x1 x7 0.16200000000000001
     x1 c_u_x8_ 1
     x1 c_l_x10_ 1
     x2 x7 0.22500000000000001
     x2 c_u_x8_ 1
     x2 c_l_x11_ 1
     x3 x7 0.12599999999999997
     x3 c_u_x8_ 1
     x3 c_l_x12_ 1
     x4 x7 0.153
     x4 c_u_x9_ 1
     x4 c_l_x10_ 1
     x5 x7 0.22500000000000001
     x5 c_u_x9_ 1
     x5 c_l_x11_ 1
     x6 x7 0.16200000000000001
     x6 c_u_x9_ 1
     x6 c_l_x12_ 1
RHS
     RHS c_u_x8_ 600
     RHS c_u_x9_ 350
     RHS c_l_x10_ 300
     RHS c_l_x11_ 325
     RHS c_l_x12_ 275
BOUNDS
 LO BOUND x1 0
 LO BOUND x2 0
 LO BOUND x3 0
 LO BOUND x4 0
 LO BOUND x5 0
 LO BOUND x6 0
ENDATA
